10361
0 0 0 0 0 1 0 1 0 0 0 0 1 1 0 0 0 0 0 1 
5 5 5 5 5 5 5 5 19 19 19 7 7 7 7 7 7 12 13 13 12 13 12 13 12 9 9 9 9 9 9 9 9 2 18 18 18 18 18 18 18 18 18 18 5 5 7 12 12 2 15 1 7 18 5 15 3 3 1 6 18 2 15 13 3 13 2 18 6 5 17 18 6 3 3 15 3 6 6 2 18 19 13 15 15 3 1 6 15 19 15 2 17 17 2 17 1 6 1 5 
